
******************************************************************************
This program contains Ipopt, a library for large-scale nonlinear optimization.
 Ipopt is released as open source code under the Eclipse Public License (EPL).
         For more information visit http://projects.coin-or.org/Ipopt
******************************************************************************

This is Ipopt version 3.12.6, running with linear solver ma57.

Number of nonzeros in equality constraint Jacobian...:        0
Number of nonzeros in inequality constraint Jacobian.:        0
Number of nonzeros in Lagrangian Hessian.............:     8999

Total number of variables............................:     3000
                     variables with only lower bounds:        0
                variables with lower and upper bounds:        0
                     variables with only upper bounds:        0
Total number of equality constraints.................:        0
Total number of inequality constraints...............:        0
        inequality constraints with only lower bounds:        0
   inequality constraints with lower and upper bounds:        0
        inequality constraints with only upper bounds:        0

iter    objective    inf_pr   inf_du lg(mu)  ||d||  lg(rg) alpha_du alpha_pr  ls
   0  7.6068417e+04 0.00e+00 7.47e+01  -1.0 0.00e+00    -  0.00e+00 0.00e+00   0
   1  3.6526171e+04 0.00e+00 3.91e+01  -1.0 2.97e-01   2.0 1.00e+00 1.00e+00f  1
   2  1.5085436e+04 0.00e+00 1.79e+01  -1.0 3.48e-01   1.5 1.00e+00 1.00e+00f  1
   3  5.8001042e+03 0.00e+00 7.53e+00  -1.0 4.14e-01   1.0 1.00e+00 1.00e+00f  1
   4  2.1755147e+03 0.00e+00 3.12e+00  -1.0 6.02e-01   0.6 1.00e+00 1.00e+00f  1
   5  1.2394178e+03 0.00e+00 1.94e+00  -1.0 1.68e-01   1.0 1.00e+00 1.00e+00f  1
   6  5.6243967e+02 0.00e+00 1.06e+00  -1.0 2.50e-01   0.5 1.00e+00 1.00e+00f  1
   7  1.8128817e+02 0.00e+00 4.46e-01  -1.0 2.92e-01   0.0 1.00e+00 1.00e+00f  1
   8  3.4216995e+01 0.00e+00 7.74e-01  -1.7 7.98e-01  -0.4 1.00e+00 1.00e+00f  1
   9  1.3645750e+01 0.00e+00 3.24e-01  -1.7 3.59e-01  -0.0 1.00e+00 1.00e+00f  1
iter    objective    inf_pr   inf_du lg(mu)  ||d||  lg(rg) alpha_du alpha_pr  ls
  10  3.9904171e+00 0.00e+00 4.68e-02  -1.7 1.13e-01  -0.5 1.00e+00 1.00e+00f  1
  11  1.5372045e+00 0.00e+00 1.92e-02  -2.5 1.33e-01  -1.0 1.00e+00 1.00e+00f  1
  12  1.1032702e+00 0.00e+00 1.14e-02  -3.8 3.16e-01  -1.4 1.00e+00 1.00e+00f  1
  13  1.0031484e+00 0.00e+00 3.17e-03  -3.8 2.03e+00    -  1.00e+00 1.00e+00f  1
  14  1.0000319e+00 0.00e+00 5.33e-04  -3.8 1.31e-01    -  1.00e+00 1.00e+00f  1
  15  1.0000000e+00 0.00e+00 2.59e-06  -5.7 2.42e-02    -  1.00e+00 1.00e+00f  1
  16  1.0000000e+00 0.00e+00 2.57e-13  -8.6 1.21e-04    -  1.00e+00 1.00e+00f  1

Number of Iterations....: 16

                                   (scaled)                 (unscaled)
Objective...............:   1.0000000000000000e+00    1.0000000000000000e+00
Dual infeasibility......:   2.5655430991839230e-13    2.5655430991839230e-13
Constraint violation....:   0.0000000000000000e+00    0.0000000000000000e+00
Complementarity.........:   0.0000000000000000e+00    0.0000000000000000e+00
Overall NLP error.......:   2.5655430991839230e-13    2.5655430991839230e-13


Number of objective function evaluations             = 17
Number of objective gradient evaluations             = 17
Number of equality constraint evaluations            = 0
Number of inequality constraint evaluations          = 0
Number of equality constraint Jacobian evaluations   = 0
Number of inequality constraint Jacobian evaluations = 0
Number of Lagrangian Hessian evaluations             = 16
Total CPU secs in IPOPT (w/o function evaluations)   =      0.063
Total CPU secs in NLP function evaluations           =      0.020

EXIT: Optimal Solution Found.
Note: The following floating-point exceptions are signalling: IEEE_UNDERFLOW_FLAG IEEE_DENORMAL

 ** SUBROUTINE CUTEST_csetup: Warning. The problem has no general constraints. 
 ** Other tools may be preferable ** 

************************ CUTEst statistics ************************


 Package used            :  IPOPT
 Problem                 :  DIXMAANG  
 # variables             =            3000
 # constraints           =               0
 # objective functions   =        0.3500000E+02
 # objective gradients   =        0.1800000E+02
 # objective Hessians    =        0.1700000E+02
 # Hessian-vector prdct  =        0.0000000E+00
 # constraints functions =        0.0000000E+00
 # constraints gradients =        0.0000000E+00
 # constraints Hessians  =        0.0000000E+00
 Exit code               =               0
 Final f                 =   0.1000000E+01
 Set up time             =            0.05 seconds
 Solve time              =            0.24 seconds


******************************************************************

System Time =       0.0610000007 s.
